\ENCODING=ISO-8859-1
\Problem name: IloCplex

Minimize
 obj: 3 I_0_1 + 6 I_1_1 + 9 I_2_1 + 7 I_3_1 + 8 I_4_1 + 3 I_0_2 + 6 I_1_2
      + 9 I_2_2 + 7 I_3_2 + 8 I_4_2 + 3 I_0_3 + 6 I_1_3 + 9 I_2_3 + 7 I_3_3
      + 8 I_4_3 + 3 I_0_4 + 6 I_1_4 + 9 I_2_4 + 7 I_3_4 + 8 I_4_4 + 3 I_0_5
      + 6 I_1_5 + 9 I_2_5 + 7 I_3_5 + 8 I_4_5 + 3 I_0_6 + 6 I_1_6 + 9 I_2_6
      + 7 I_3_6 + 8 I_4_6 + 30 p_1 + 3000 y_1 + 30 p_2 + 3000 y_2 + 30 p_3
      + 3000 y_3 + 30 p_4 + 3000 y_4 + 30 p_5 + 3000 y_5 + 30 p_6 + 3000 y_6
      + 81 X_0_1_1 + 225 X_0_2_1 + 146 X_0_3_1 + 343 X_0_4_1 + 81 X_1_0_1
      + 156 X_1_2_1 + 218 X_1_3_1 + 353 X_1_4_1 + 225 X_2_0_1 + 156 X_2_1_1
      + 327 X_2_3_1 + 325 X_2_4_1 + 146 X_3_0_1 + 218 X_3_1_1 + 327 X_3_2_1
      + 287 X_3_4_1 + 343 X_4_0_1 + 353 X_4_1_1 + 325 X_4_2_1 + 287 X_4_3_1
      + 81 X_0_1_2 + 225 X_0_2_2 + 146 X_0_3_2 + 343 X_0_4_2 + 81 X_1_0_2
      + 156 X_1_2_2 + 218 X_1_3_2 + 353 X_1_4_2 + 225 X_2_0_2 + 156 X_2_1_2
      + 327 X_2_3_2 + 325 X_2_4_2 + 146 X_3_0_2 + 218 X_3_1_2 + 327 X_3_2_2
      + 287 X_3_4_2 + 343 X_4_0_2 + 353 X_4_1_2 + 325 X_4_2_2 + 287 X_4_3_2
      + 81 X_0_1_3 + 225 X_0_2_3 + 146 X_0_3_3 + 343 X_0_4_3 + 81 X_1_0_3
      + 156 X_1_2_3 + 218 X_1_3_3 + 353 X_1_4_3 + 225 X_2_0_3 + 156 X_2_1_3
      + 327 X_2_3_3 + 325 X_2_4_3 + 146 X_3_0_3 + 218 X_3_1_3 + 327 X_3_2_3
      + 287 X_3_4_3 + 343 X_4_0_3 + 353 X_4_1_3 + 325 X_4_2_3 + 287 X_4_3_3
      + 81 X_0_1_4 + 225 X_0_2_4 + 146 X_0_3_4 + 343 X_0_4_4 + 81 X_1_0_4
      + 156 X_1_2_4 + 218 X_1_3_4 + 353 X_1_4_4 + 225 X_2_0_4 + 156 X_2_1_4
      + 327 X_2_3_4 + 325 X_2_4_4 + 146 X_3_0_4 + 218 X_3_1_4 + 327 X_3_2_4
      + 287 X_3_4_4 + 343 X_4_0_4 + 353 X_4_1_4 + 325 X_4_2_4 + 287 X_4_3_4
      + 81 X_0_1_5 + 225 X_0_2_5 + 146 X_0_3_5 + 343 X_0_4_5 + 81 X_1_0_5
      + 156 X_1_2_5 + 218 X_1_3_5 + 353 X_1_4_5 + 225 X_2_0_5 + 156 X_2_1_5
      + 327 X_2_3_5 + 325 X_2_4_5 + 146 X_3_0_5 + 218 X_3_1_5 + 327 X_3_2_5
      + 287 X_3_4_5 + 343 X_4_0_5 + 353 X_4_1_5 + 325 X_4_2_5 + 287 X_4_3_5
      + 81 X_0_1_6 + 225 X_0_2_6 + 146 X_0_3_6 + 343 X_0_4_6 + 81 X_1_0_6
      + 156 X_1_2_6 + 218 X_1_3_6 + 353 X_1_4_6 + 225 X_2_0_6 + 156 X_2_1_6
      + 327 X_2_3_6 + 325 X_2_4_6 + 146 X_3_0_6 + 218 X_3_1_6 + 327 X_3_2_6
      + 287 X_3_4_6 + 343 X_4_0_6 + 353 X_4_1_6 + 325 X_4_2_6 + 287 X_4_3_6
Subject To
 C2_t1:        - I_0_1 + p_1 + I_0_0 - Q_1_1 - Q_2_1 - Q_3_1 - Q_4_1  = 0
 C2_t2:        I_0_1 - I_0_2 + p_2 - Q_1_2 - Q_2_2 - Q_3_2 - Q_4_2  = 0
 C2_t3:        I_0_2 - I_0_3 + p_3 - Q_1_3 - Q_2_3 - Q_3_3 - Q_4_3  = 0
 C2_t4:        I_0_3 - I_0_4 + p_4 - Q_1_4 - Q_2_4 - Q_3_4 - Q_4_4  = 0
 C2_t5:        I_0_4 - I_0_5 + p_5 - Q_1_5 - Q_2_5 - Q_3_5 - Q_4_5  = 0
 C2_t6:        I_0_5 - I_0_6 + p_6 - Q_1_6 - Q_2_6 - Q_3_6 - Q_4_6  = 0
 C3_i1;t1:     - I_1_1 + Q_1_1 + I_1_0  = 10
 C3_i1;t2:     I_1_1 - I_1_2 + Q_1_2  = 10
 C3_i1;t3:     I_1_2 - I_1_3 + Q_1_3  = 10
 C3_i1;t4:     I_1_3 - I_1_4 + Q_1_4  = 10
 C3_i1;t5:     I_1_4 - I_1_5 + Q_1_5  = 10
 C3_i1;t6:     I_1_5 - I_1_6 + Q_1_6  = 10
 C3_i2;t1:     - I_2_1 + Q_2_1 + I_2_0  = 15
 C3_i2;t2:     I_2_1 - I_2_2 + Q_2_2  = 15
 C3_i2;t3:     I_2_2 - I_2_3 + Q_2_3  = 15
 C3_i2;t4:     I_2_3 - I_2_4 + Q_2_4  = 15
 C3_i2;t5:     I_2_4 - I_2_5 + Q_2_5  = 15
 C3_i2;t6:     I_2_5 - I_2_6 + Q_2_6  = 15
 C3_i3;t1:     - I_3_1 + Q_3_1 + I_3_0  = 15
 C3_i3;t2:     I_3_1 - I_3_2 + Q_3_2  = 15
 C3_i3;t3:     I_3_2 - I_3_3 + Q_3_3  = 15
 C3_i3;t4:     I_3_3 - I_3_4 + Q_3_4  = 15
 C3_i3;t5:     I_3_4 - I_3_5 + Q_3_5  = 15
 C3_i3;t6:     I_3_5 - I_3_6 + Q_3_6  = 15
 C3_i4;t1:     - I_4_1 + Q_4_1 + I_4_0  = 7
 C3_i4;t2:     I_4_1 - I_4_2 + Q_4_2  = 7
 C3_i4;t3:     I_4_2 - I_4_3 + Q_4_3  = 7
 C3_i4;t4:     I_4_3 - I_4_4 + Q_4_4  = 7
 C3_i4;t5:     I_4_4 - I_4_5 + Q_4_5  = 7
 C3_i4;t6:     I_4_5 - I_4_6 + Q_4_6  = 7
 C4_t1:        p_1 - 282 y_1 <= 0
 C4_t2:        p_2 - 235 y_2 <= 0
 C4_t3:        p_3 - 188 y_3 <= 0
 C4_t4:        p_4 - 141 y_4 <= 0
 C4_t5:        p_5 - 94 y_5 <= 0
 C4_t6:        p_6 - 47 y_6 <= 0
 C5_t0:        I_0_0 <= 10000000000
 C5_t1:        I_0_1 <= 10000000000
 C5_t2:        I_0_2 <= 10000000000
 C5_t3:        I_0_3 <= 10000000000
 C5_t4:        I_0_4 <= 10000000000
 C5_t5:        I_0_5 <= 10000000000
 C5_t6:        I_0_6 <= 10000000000
 C6_i1;t1:     Q_1_1 + I_1_0 <= 20
 C6_i1;t2:     I_1_1 + Q_1_2 <= 20
 C6_i1;t3:     I_1_2 + Q_1_3 <= 20
 C6_i1;t4:     I_1_3 + Q_1_4 <= 20
 C6_i1;t5:     I_1_4 + Q_1_5 <= 20
 C6_i1;t6:     I_1_5 + Q_1_6 <= 20
 C6_i2;t1:     Q_2_1 + I_2_0 <= 45
 C6_i2;t2:     I_2_1 + Q_2_2 <= 45
 C6_i2;t3:     I_2_2 + Q_2_3 <= 45
 C6_i2;t4:     I_2_3 + Q_2_4 <= 45
 C6_i2;t5:     I_2_4 + Q_2_5 <= 45
 C6_i2;t6:     I_2_5 + Q_2_6 <= 45
 C6_i3;t1:     Q_3_1 + I_3_0 <= 45
 C6_i3;t2:     I_3_1 + Q_3_2 <= 45
 C6_i3;t3:     I_3_2 + Q_3_3 <= 45
 C6_i3;t4:     I_3_3 + Q_3_4 <= 45
 C6_i3;t5:     I_3_4 + Q_3_5 <= 45
 C6_i3;t6:     I_3_5 + Q_3_6 <= 45
 C6_i4;t1:     Q_4_1 + I_4_0 <= 14
 C6_i4;t2:     I_4_1 + Q_4_2 <= 14
 C6_i4;t3:     I_4_2 + Q_4_3 <= 14
 C6_i4;t4:     I_4_3 + Q_4_4 <= 14
 C6_i4;t5:     I_4_4 + Q_4_5 <= 14
 C6_i4;t6:     I_4_5 + Q_4_6 <= 14
 C7_i1;t1:     Q_1_1 - 20 Z_1_1 <= 0
 C7_i1;t2:     Q_1_2 - 20 Z_1_2 <= 0
 C7_i1;t3:     Q_1_3 - 20 Z_1_3 <= 0
 C7_i1;t4:     Q_1_4 - 20 Z_1_4 <= 0
 C7_i1;t5:     Q_1_5 - 20 Z_1_5 <= 0
 C7_i1;t6:     Q_1_6 - 10 Z_1_6 <= 0
 C7_i2;t1:     Q_2_1 - 45 Z_2_1 <= 0
 C7_i2;t2:     Q_2_2 - 45 Z_2_2 <= 0
 C7_i2;t3:     Q_2_3 - 45 Z_2_3 <= 0
 C7_i2;t4:     Q_2_4 - 45 Z_2_4 <= 0
 C7_i2;t5:     Q_2_5 - 30 Z_2_5 <= 0
 C7_i2;t6:     Q_2_6 - 15 Z_2_6 <= 0
 C7_i3;t1:     Q_3_1 - 45 Z_3_1 <= 0
 C7_i3;t2:     Q_3_2 - 45 Z_3_2 <= 0
 C7_i3;t3:     Q_3_3 - 45 Z_3_3 <= 0
 C7_i3;t4:     Q_3_4 - 45 Z_3_4 <= 0
 C7_i3;t5:     Q_3_5 - 30 Z_3_5 <= 0
 C7_i3;t6:     Q_3_6 - 15 Z_3_6 <= 0
 C7_i4;t1:     Q_4_1 - 14 Z_4_1 <= 0
 C7_i4;t2:     Q_4_2 - 14 Z_4_2 <= 0
 C7_i4;t3:     Q_4_3 - 14 Z_4_3 <= 0
 C7_i4;t4:     Q_4_4 - 14 Z_4_4 <= 0
 C7_i4;t5:     Q_4_5 - 14 Z_4_5 <= 0
 C7_i4;t6:     Q_4_6 - 7 Z_4_6 <= 0
 C8_i1;t1:     X_0_1_1 + X_2_1_1 + X_3_1_1 + X_4_1_1 - Z_1_1  = 0
 C8_i1;t2:     X_0_1_2 + X_2_1_2 + X_3_1_2 + X_4_1_2 - Z_1_2  = 0
 C8_i1;t3:     X_0_1_3 + X_2_1_3 + X_3_1_3 + X_4_1_3 - Z_1_3  = 0
 C8_i1;t4:     X_0_1_4 + X_2_1_4 + X_3_1_4 + X_4_1_4 - Z_1_4  = 0
 C8_i1;t5:     X_0_1_5 + X_2_1_5 + X_3_1_5 + X_4_1_5 - Z_1_5  = 0
 C8_i1;t6:     X_0_1_6 + X_2_1_6 + X_3_1_6 + X_4_1_6 - Z_1_6  = 0
 C8_i2;t1:     X_0_2_1 + X_1_2_1 + X_3_2_1 + X_4_2_1 - Z_2_1  = 0
 C8_i2;t2:     X_0_2_2 + X_1_2_2 + X_3_2_2 + X_4_2_2 - Z_2_2  = 0
 C8_i2;t3:     X_0_2_3 + X_1_2_3 + X_3_2_3 + X_4_2_3 - Z_2_3  = 0
 C8_i2;t4:     X_0_2_4 + X_1_2_4 + X_3_2_4 + X_4_2_4 - Z_2_4  = 0
 C8_i2;t5:     X_0_2_5 + X_1_2_5 + X_3_2_5 + X_4_2_5 - Z_2_5  = 0
 C8_i2;t6:     X_0_2_6 + X_1_2_6 + X_3_2_6 + X_4_2_6 - Z_2_6  = 0
 C8_i3;t1:     X_0_3_1 + X_1_3_1 + X_2_3_1 + X_4_3_1 - Z_3_1  = 0
 C8_i3;t2:     X_0_3_2 + X_1_3_2 + X_2_3_2 + X_4_3_2 - Z_3_2  = 0
 C8_i3;t3:     X_0_3_3 + X_1_3_3 + X_2_3_3 + X_4_3_3 - Z_3_3  = 0
 C8_i3;t4:     X_0_3_4 + X_1_3_4 + X_2_3_4 + X_4_3_4 - Z_3_4  = 0
 C8_i3;t5:     X_0_3_5 + X_1_3_5 + X_2_3_5 + X_4_3_5 - Z_3_5  = 0
 C8_i3;t6:     X_0_3_6 + X_1_3_6 + X_2_3_6 + X_4_3_6 - Z_3_6  = 0
 C8_i4;t1:     X_0_4_1 + X_1_4_1 + X_2_4_1 + X_3_4_1 - Z_4_1  = 0
 C8_i4;t2:     X_0_4_2 + X_1_4_2 + X_2_4_2 + X_3_4_2 - Z_4_2  = 0
 C8_i4;t3:     X_0_4_3 + X_1_4_3 + X_2_4_3 + X_3_4_3 - Z_4_3  = 0
 C8_i4;t4:     X_0_4_4 + X_1_4_4 + X_2_4_4 + X_3_4_4 - Z_4_4  = 0
 C8_i4;t5:     X_0_4_5 + X_1_4_5 + X_2_4_5 + X_3_4_5 - Z_4_5  = 0
 C8_i4;t6:     X_0_4_6 + X_1_4_6 + X_2_4_6 + X_3_4_6 - Z_4_6  = 0
 C9_i1;t1:     X_0_1_1 + X_1_0_1 + X_1_2_1 + X_1_3_1 + X_1_4_1 + X_2_1_1
               + X_3_1_1 + X_4_1_1 - 2 Z_1_1  = 0
 C9_i1;t2:     X_0_1_2 + X_1_0_2 + X_1_2_2 + X_1_3_2 + X_1_4_2 + X_2_1_2
               + X_3_1_2 + X_4_1_2 - 2 Z_1_2  = 0
 C9_i1;t3:     X_0_1_3 + X_1_0_3 + X_1_2_3 + X_1_3_3 + X_1_4_3 + X_2_1_3
               + X_3_1_3 + X_4_1_3 - 2 Z_1_3  = 0
 C9_i1;t4:     X_0_1_4 + X_1_0_4 + X_1_2_4 + X_1_3_4 + X_1_4_4 + X_2_1_4
               + X_3_1_4 + X_4_1_4 - 2 Z_1_4  = 0
 C9_i1;t5:     X_0_1_5 + X_1_0_5 + X_1_2_5 + X_1_3_5 + X_1_4_5 + X_2_1_5
               + X_3_1_5 + X_4_1_5 - 2 Z_1_5  = 0
 C9_i1;t6:     X_0_1_6 + X_1_0_6 + X_1_2_6 + X_1_3_6 + X_1_4_6 + X_2_1_6
               + X_3_1_6 + X_4_1_6 - 2 Z_1_6  = 0
 C9_i2;t1:     X_0_2_1 + X_1_2_1 + X_2_0_1 + X_2_1_1 + X_2_3_1 + X_2_4_1
               + X_3_2_1 + X_4_2_1 - 2 Z_2_1  = 0
 C9_i2;t2:     X_0_2_2 + X_1_2_2 + X_2_0_2 + X_2_1_2 + X_2_3_2 + X_2_4_2
               + X_3_2_2 + X_4_2_2 - 2 Z_2_2  = 0
 C9_i2;t3:     X_0_2_3 + X_1_2_3 + X_2_0_3 + X_2_1_3 + X_2_3_3 + X_2_4_3
               + X_3_2_3 + X_4_2_3 - 2 Z_2_3  = 0
 C9_i2;t4:     X_0_2_4 + X_1_2_4 + X_2_0_4 + X_2_1_4 + X_2_3_4 + X_2_4_4
               + X_3_2_4 + X_4_2_4 - 2 Z_2_4  = 0
 C9_i2;t5:     X_0_2_5 + X_1_2_5 + X_2_0_5 + X_2_1_5 + X_2_3_5 + X_2_4_5
               + X_3_2_5 + X_4_2_5 - 2 Z_2_5  = 0
 C9_i2;t6:     X_0_2_6 + X_1_2_6 + X_2_0_6 + X_2_1_6 + X_2_3_6 + X_2_4_6
               + X_3_2_6 + X_4_2_6 - 2 Z_2_6  = 0
 C9_i3;t1:     X_0_3_1 + X_1_3_1 + X_2_3_1 + X_3_0_1 + X_3_1_1 + X_3_2_1
               + X_3_4_1 + X_4_3_1 - 2 Z_3_1  = 0
 C9_i3;t2:     X_0_3_2 + X_1_3_2 + X_2_3_2 + X_3_0_2 + X_3_1_2 + X_3_2_2
               + X_3_4_2 + X_4_3_2 - 2 Z_3_2  = 0
 C9_i3;t3:     X_0_3_3 + X_1_3_3 + X_2_3_3 + X_3_0_3 + X_3_1_3 + X_3_2_3
               + X_3_4_3 + X_4_3_3 - 2 Z_3_3  = 0
 C9_i3;t4:     X_0_3_4 + X_1_3_4 + X_2_3_4 + X_3_0_4 + X_3_1_4 + X_3_2_4
               + X_3_4_4 + X_4_3_4 - 2 Z_3_4  = 0
 C9_i3;t5:     X_0_3_5 + X_1_3_5 + X_2_3_5 + X_3_0_5 + X_3_1_5 + X_3_2_5
               + X_3_4_5 + X_4_3_5 - 2 Z_3_5  = 0
 C9_i3;t6:     X_0_3_6 + X_1_3_6 + X_2_3_6 + X_3_0_6 + X_3_1_6 + X_3_2_6
               + X_3_4_6 + X_4_3_6 - 2 Z_3_6  = 0
 C9_i4;t1:     X_0_4_1 + X_1_4_1 + X_2_4_1 + X_3_4_1 + X_4_0_1 + X_4_1_1
               + X_4_2_1 + X_4_3_1 - 2 Z_4_1  = 0
 C9_i4;t2:     X_0_4_2 + X_1_4_2 + X_2_4_2 + X_3_4_2 + X_4_0_2 + X_4_1_2
               + X_4_2_2 + X_4_3_2 - 2 Z_4_2  = 0
 C9_i4;t3:     X_0_4_3 + X_1_4_3 + X_2_4_3 + X_3_4_3 + X_4_0_3 + X_4_1_3
               + X_4_2_3 + X_4_3_3 - 2 Z_4_3  = 0
 C9_i4;t4:     X_0_4_4 + X_1_4_4 + X_2_4_4 + X_3_4_4 + X_4_0_4 + X_4_1_4
               + X_4_2_4 + X_4_3_4 - 2 Z_4_4  = 0
 C9_i4;t5:     X_0_4_5 + X_1_4_5 + X_2_4_5 + X_3_4_5 + X_4_0_5 + X_4_1_5
               + X_4_2_5 + X_4_3_5 - 2 Z_4_5  = 0
 C9_i4;t6:     X_0_4_6 + X_1_4_6 + X_2_4_6 + X_3_4_6 + X_4_0_6 + X_4_1_6
               + X_4_2_6 + X_4_3_6 - 2 Z_4_6  = 0
 C10_t0:       Z_0_1 <= 90
 C10_t1:       Z_0_2 <= 90
 C10_t2:       Z_0_3 <= 90
 C10_t3:       Z_0_4 <= 90
 C10_t4:       Z_0_5 <= 90
 C10_t5:       Z_0_6 <= 90
 C11_(1;2);t1: - 20 X_1_2_1 - Q_1_1 + W_1_1 - W_2_1 >= -20
 C11_(1;2);t2: - 20 X_1_2_2 - Q_1_2 + W_1_2 - W_2_2 >= -20
 C11_(1;2);t3: - 20 X_1_2_3 - Q_1_3 + W_1_3 - W_2_3 >= -20
 C11_(1;2);t4: - 20 X_1_2_4 - Q_1_4 + W_1_4 - W_2_4 >= -20
 C11_(1;2);t5: - 20 X_1_2_5 - Q_1_5 + W_1_5 - W_2_5 >= -20
 C11_(1;2);t6: - 10 X_1_2_6 - Q_1_6 + W_1_6 - W_2_6 >= -10
 C11_(1;3);t1: - 20 X_1_3_1 - Q_1_1 + W_1_1 - W_3_1 >= -20
 C11_(1;3);t2: - 20 X_1_3_2 - Q_1_2 + W_1_2 - W_3_2 >= -20
 C11_(1;3);t3: - 20 X_1_3_3 - Q_1_3 + W_1_3 - W_3_3 >= -20
 C11_(1;3);t4: - 20 X_1_3_4 - Q_1_4 + W_1_4 - W_3_4 >= -20
 C11_(1;3);t5: - 20 X_1_3_5 - Q_1_5 + W_1_5 - W_3_5 >= -20
 C11_(1;3);t6: - 10 X_1_3_6 - Q_1_6 + W_1_6 - W_3_6 >= -10
 C11_(1;4);t1: - 20 X_1_4_1 - Q_1_1 + W_1_1 - W_4_1 >= -20
 C11_(1;4);t2: - 20 X_1_4_2 - Q_1_2 + W_1_2 - W_4_2 >= -20
 C11_(1;4);t3: - 20 X_1_4_3 - Q_1_3 + W_1_3 - W_4_3 >= -20
 C11_(1;4);t4: - 20 X_1_4_4 - Q_1_4 + W_1_4 - W_4_4 >= -20
 C11_(1;4);t5: - 20 X_1_4_5 - Q_1_5 + W_1_5 - W_4_5 >= -20
 C11_(1;4);t6: - 10 X_1_4_6 - Q_1_6 + W_1_6 - W_4_6 >= -10
 C11_(2;1);t1: - 45 X_2_1_1 - Q_2_1 - W_1_1 + W_2_1 >= -45
 C11_(2;1);t2: - 45 X_2_1_2 - Q_2_2 - W_1_2 + W_2_2 >= -45
 C11_(2;1);t3: - 45 X_2_1_3 - Q_2_3 - W_1_3 + W_2_3 >= -45
 C11_(2;1);t4: - 45 X_2_1_4 - Q_2_4 - W_1_4 + W_2_4 >= -45
 C11_(2;1);t5: - 30 X_2_1_5 - Q_2_5 - W_1_5 + W_2_5 >= -30
 C11_(2;1);t6: - 15 X_2_1_6 - Q_2_6 - W_1_6 + W_2_6 >= -15
 C11_(2;3);t1: - 45 X_2_3_1 - Q_2_1 + W_2_1 - W_3_1 >= -45
 C11_(2;3);t2: - 45 X_2_3_2 - Q_2_2 + W_2_2 - W_3_2 >= -45
 C11_(2;3);t3: - 45 X_2_3_3 - Q_2_3 + W_2_3 - W_3_3 >= -45
 C11_(2;3);t4: - 45 X_2_3_4 - Q_2_4 + W_2_4 - W_3_4 >= -45
 C11_(2;3);t5: - 30 X_2_3_5 - Q_2_5 + W_2_5 - W_3_5 >= -30
 C11_(2;3);t6: - 15 X_2_3_6 - Q_2_6 + W_2_6 - W_3_6 >= -15
 C11_(2;4);t1: - 45 X_2_4_1 - Q_2_1 + W_2_1 - W_4_1 >= -45
 C11_(2;4);t2: - 45 X_2_4_2 - Q_2_2 + W_2_2 - W_4_2 >= -45
 C11_(2;4);t3: - 45 X_2_4_3 - Q_2_3 + W_2_3 - W_4_3 >= -45
 C11_(2;4);t4: - 45 X_2_4_4 - Q_2_4 + W_2_4 - W_4_4 >= -45
 C11_(2;4);t5: - 30 X_2_4_5 - Q_2_5 + W_2_5 - W_4_5 >= -30
 C11_(2;4);t6: - 15 X_2_4_6 - Q_2_6 + W_2_6 - W_4_6 >= -15
 C11_(3;1);t1: - 45 X_3_1_1 - Q_3_1 - W_1_1 + W_3_1 >= -45
 C11_(3;1);t2: - 45 X_3_1_2 - Q_3_2 - W_1_2 + W_3_2 >= -45
 C11_(3;1);t3: - 45 X_3_1_3 - Q_3_3 - W_1_3 + W_3_3 >= -45
 C11_(3;1);t4: - 45 X_3_1_4 - Q_3_4 - W_1_4 + W_3_4 >= -45
 C11_(3;1);t5: - 30 X_3_1_5 - Q_3_5 - W_1_5 + W_3_5 >= -30
 C11_(3;1);t6: - 15 X_3_1_6 - Q_3_6 - W_1_6 + W_3_6 >= -15
 C11_(3;2);t1: - 45 X_3_2_1 - Q_3_1 - W_2_1 + W_3_1 >= -45
 C11_(3;2);t2: - 45 X_3_2_2 - Q_3_2 - W_2_2 + W_3_2 >= -45
 C11_(3;2);t3: - 45 X_3_2_3 - Q_3_3 - W_2_3 + W_3_3 >= -45
 C11_(3;2);t4: - 45 X_3_2_4 - Q_3_4 - W_2_4 + W_3_4 >= -45
 C11_(3;2);t5: - 30 X_3_2_5 - Q_3_5 - W_2_5 + W_3_5 >= -30
 C11_(3;2);t6: - 15 X_3_2_6 - Q_3_6 - W_2_6 + W_3_6 >= -15
 C11_(3;4);t1: - 45 X_3_4_1 - Q_3_1 + W_3_1 - W_4_1 >= -45
 C11_(3;4);t2: - 45 X_3_4_2 - Q_3_2 + W_3_2 - W_4_2 >= -45
 C11_(3;4);t3: - 45 X_3_4_3 - Q_3_3 + W_3_3 - W_4_3 >= -45
 C11_(3;4);t4: - 45 X_3_4_4 - Q_3_4 + W_3_4 - W_4_4 >= -45
 C11_(3;4);t5: - 30 X_3_4_5 - Q_3_5 + W_3_5 - W_4_5 >= -30
 C11_(3;4);t6: - 15 X_3_4_6 - Q_3_6 + W_3_6 - W_4_6 >= -15
 C11_(4;1);t1: - 14 X_4_1_1 - Q_4_1 - W_1_1 + W_4_1 >= -14
 C11_(4;1);t2: - 14 X_4_1_2 - Q_4_2 - W_1_2 + W_4_2 >= -14
 C11_(4;1);t3: - 14 X_4_1_3 - Q_4_3 - W_1_3 + W_4_3 >= -14
 C11_(4;1);t4: - 14 X_4_1_4 - Q_4_4 - W_1_4 + W_4_4 >= -14
 C11_(4;1);t5: - 14 X_4_1_5 - Q_4_5 - W_1_5 + W_4_5 >= -14
 C11_(4;1);t6: - 7 X_4_1_6 - Q_4_6 - W_1_6 + W_4_6 >= -7
 C11_(4;2);t1: - 14 X_4_2_1 - Q_4_1 - W_2_1 + W_4_1 >= -14
 C11_(4;2);t2: - 14 X_4_2_2 - Q_4_2 - W_2_2 + W_4_2 >= -14
 C11_(4;2);t3: - 14 X_4_2_3 - Q_4_3 - W_2_3 + W_4_3 >= -14
 C11_(4;2);t4: - 14 X_4_2_4 - Q_4_4 - W_2_4 + W_4_4 >= -14
 C11_(4;2);t5: - 14 X_4_2_5 - Q_4_5 - W_2_5 + W_4_5 >= -14
 C11_(4;2);t6: - 7 X_4_2_6 - Q_4_6 - W_2_6 + W_4_6 >= -7
 C11_(4;3);t1: - 14 X_4_3_1 - Q_4_1 - W_3_1 + W_4_1 >= -14
 C11_(4;3);t2: - 14 X_4_3_2 - Q_4_2 - W_3_2 + W_4_2 >= -14
 C11_(4;3);t3: - 14 X_4_3_3 - Q_4_3 - W_3_3 + W_4_3 >= -14
 C11_(4;3);t4: - 14 X_4_3_4 - Q_4_4 - W_3_4 + W_4_4 >= -14
 C11_(4;3);t5: - 14 X_4_3_5 - Q_4_5 - W_3_5 + W_4_5 >= -14
 C11_(4;3);t6: - 7 X_4_3_6 - Q_4_6 - W_3_6 + W_4_6 >= -7
 C12_i1;t0:    - 322 Z_1_1 + W_1_1 <= 0
 C12_i1;t1:    - 322 Z_1_2 + W_1_2 <= 0
 C12_i1;t2:    - 322 Z_1_3 + W_1_3 <= 0
 C12_i1;t3:    - 322 Z_1_4 + W_1_4 <= 0
 C12_i1;t4:    - 322 Z_1_5 + W_1_5 <= 0
 C12_i1;t5:    - 322 Z_1_6 + W_1_6 <= 0
 C12_i2;t0:    - 322 Z_2_1 + W_2_1 <= 0
 C12_i2;t1:    - 322 Z_2_2 + W_2_2 <= 0
 C12_i2;t2:    - 322 Z_2_3 + W_2_3 <= 0
 C12_i2;t3:    - 322 Z_2_4 + W_2_4 <= 0
 C12_i2;t4:    - 322 Z_2_5 + W_2_5 <= 0
 C12_i2;t5:    - 322 Z_2_6 + W_2_6 <= 0
 C12_i3;t0:    - 322 Z_3_1 + W_3_1 <= 0
 C12_i3;t1:    - 322 Z_3_2 + W_3_2 <= 0
 C12_i3;t2:    - 322 Z_3_3 + W_3_3 <= 0
 C12_i3;t3:    - 322 Z_3_4 + W_3_4 <= 0
 C12_i3;t4:    - 322 Z_3_5 + W_3_5 <= 0
 C12_i3;t5:    - 322 Z_3_6 + W_3_6 <= 0
 C12_i4;t0:    - 322 Z_4_1 + W_4_1 <= 0
 C12_i4;t1:    - 322 Z_4_2 + W_4_2 <= 0
 C12_i4;t2:    - 322 Z_4_3 + W_4_3 <= 0
 C12_i4;t3:    - 322 Z_4_4 + W_4_4 <= 0
 C12_i4;t4:    - 322 Z_4_5 + W_4_5 <= 0
 C12_i4;t5:    - 322 Z_4_6 + W_4_6 <= 0
Bounds
 0 <= I_0_1 <= 10000000000
 0 <= I_1_1 <= 20
 0 <= I_2_1 <= 45
 0 <= I_3_1 <= 45
 0 <= I_4_1 <= 14
 0 <= I_0_2 <= 10000000000
 0 <= I_1_2 <= 20
 0 <= I_2_2 <= 45
 0 <= I_3_2 <= 45
 0 <= I_4_2 <= 14
 0 <= I_0_3 <= 10000000000
 0 <= I_1_3 <= 20
 0 <= I_2_3 <= 45
 0 <= I_3_3 <= 45
 0 <= I_4_3 <= 14
 0 <= I_0_4 <= 10000000000
 0 <= I_1_4 <= 20
 0 <= I_2_4 <= 45
 0 <= I_3_4 <= 45
 0 <= I_4_4 <= 14
 0 <= I_0_5 <= 10000000000
 0 <= I_1_5 <= 20
 0 <= I_2_5 <= 45
 0 <= I_3_5 <= 45
 0 <= I_4_5 <= 14
 0 <= I_0_6 <= 10000000000
 0 <= I_1_6 <= 20
 0 <= I_2_6 <= 45
 0 <= I_3_6 <= 45
 0 <= I_4_6 <= 14
 0 <= p_1 <= 10000000000
 0 <= y_1 <= 1
 0 <= p_2 <= 10000000000
 0 <= y_2 <= 1
 0 <= p_3 <= 10000000000
 0 <= y_3 <= 1
 0 <= p_4 <= 10000000000
 0 <= y_4 <= 1
 0 <= p_5 <= 10000000000
 0 <= y_5 <= 1
 0 <= p_6 <= 10000000000
 0 <= y_6 <= 1
 0 <= X_0_1_1 <= 1
 0 <= X_0_2_1 <= 1
 0 <= X_0_3_1 <= 1
 0 <= X_0_4_1 <= 1
 0 <= X_1_0_1 <= 1
 0 <= X_1_2_1 <= 1
 0 <= X_1_3_1 <= 1
 0 <= X_1_4_1 <= 1
 0 <= X_2_0_1 <= 1
 0 <= X_2_1_1 <= 1
 0 <= X_2_3_1 <= 1
 0 <= X_2_4_1 <= 1
 0 <= X_3_0_1 <= 1
 0 <= X_3_1_1 <= 1
 0 <= X_3_2_1 <= 1
 0 <= X_3_4_1 <= 1
 0 <= X_4_0_1 <= 1
 0 <= X_4_1_1 <= 1
 0 <= X_4_2_1 <= 1
 0 <= X_4_3_1 <= 1
 0 <= X_0_1_2 <= 1
 0 <= X_0_2_2 <= 1
 0 <= X_0_3_2 <= 1
 0 <= X_0_4_2 <= 1
 0 <= X_1_0_2 <= 1
 0 <= X_1_2_2 <= 1
 0 <= X_1_3_2 <= 1
 0 <= X_1_4_2 <= 1
 0 <= X_2_0_2 <= 1
 0 <= X_2_1_2 <= 1
 0 <= X_2_3_2 <= 1
 0 <= X_2_4_2 <= 1
 0 <= X_3_0_2 <= 1
 0 <= X_3_1_2 <= 1
 0 <= X_3_2_2 <= 1
 0 <= X_3_4_2 <= 1
 0 <= X_4_0_2 <= 1
 0 <= X_4_1_2 <= 1
 0 <= X_4_2_2 <= 1
 0 <= X_4_3_2 <= 1
 0 <= X_0_1_3 <= 1
 0 <= X_0_2_3 <= 1
 0 <= X_0_3_3 <= 1
 0 <= X_0_4_3 <= 1
 0 <= X_1_0_3 <= 1
 0 <= X_1_2_3 <= 1
 0 <= X_1_3_3 <= 1
 0 <= X_1_4_3 <= 1
 0 <= X_2_0_3 <= 1
 0 <= X_2_1_3 <= 1
 0 <= X_2_3_3 <= 1
 0 <= X_2_4_3 <= 1
 0 <= X_3_0_3 <= 1
 0 <= X_3_1_3 <= 1
 0 <= X_3_2_3 <= 1
 0 <= X_3_4_3 <= 1
 0 <= X_4_0_3 <= 1
 0 <= X_4_1_3 <= 1
 0 <= X_4_2_3 <= 1
 0 <= X_4_3_3 <= 1
 0 <= X_0_1_4 <= 1
 0 <= X_0_2_4 <= 1
 0 <= X_0_3_4 <= 1
 0 <= X_0_4_4 <= 1
 0 <= X_1_0_4 <= 1
 0 <= X_1_2_4 <= 1
 0 <= X_1_3_4 <= 1
 0 <= X_1_4_4 <= 1
 0 <= X_2_0_4 <= 1
 0 <= X_2_1_4 <= 1
 0 <= X_2_3_4 <= 1
 0 <= X_2_4_4 <= 1
 0 <= X_3_0_4 <= 1
 0 <= X_3_1_4 <= 1
 0 <= X_3_2_4 <= 1
 0 <= X_3_4_4 <= 1
 0 <= X_4_0_4 <= 1
 0 <= X_4_1_4 <= 1
 0 <= X_4_2_4 <= 1
 0 <= X_4_3_4 <= 1
 0 <= X_0_1_5 <= 1
 0 <= X_0_2_5 <= 1
 0 <= X_0_3_5 <= 1
 0 <= X_0_4_5 <= 1
 0 <= X_1_0_5 <= 1
 0 <= X_1_2_5 <= 1
 0 <= X_1_3_5 <= 1
 0 <= X_1_4_5 <= 1
 0 <= X_2_0_5 <= 1
 0 <= X_2_1_5 <= 1
 0 <= X_2_3_5 <= 1
 0 <= X_2_4_5 <= 1
 0 <= X_3_0_5 <= 1
 0 <= X_3_1_5 <= 1
 0 <= X_3_2_5 <= 1
 0 <= X_3_4_5 <= 1
 0 <= X_4_0_5 <= 1
 0 <= X_4_1_5 <= 1
 0 <= X_4_2_5 <= 1
 0 <= X_4_3_5 <= 1
 0 <= X_0_1_6 <= 1
 0 <= X_0_2_6 <= 1
 0 <= X_0_3_6 <= 1
 0 <= X_0_4_6 <= 1
 0 <= X_1_0_6 <= 1
 0 <= X_1_2_6 <= 1
 0 <= X_1_3_6 <= 1
 0 <= X_1_4_6 <= 1
 0 <= X_2_0_6 <= 1
 0 <= X_2_1_6 <= 1
 0 <= X_2_3_6 <= 1
 0 <= X_2_4_6 <= 1
 0 <= X_3_0_6 <= 1
 0 <= X_3_1_6 <= 1
 0 <= X_3_2_6 <= 1
 0 <= X_3_4_6 <= 1
 0 <= X_4_0_6 <= 1
 0 <= X_4_1_6 <= 1
 0 <= X_4_2_6 <= 1
 0 <= X_4_3_6 <= 1
      I_0_0 = 0
 0 <= Q_1_1 <= 322
 0 <= Q_2_1 <= 322
 0 <= Q_3_1 <= 322
 0 <= Q_4_1 <= 322
 0 <= Q_1_2 <= 322
 0 <= Q_2_2 <= 322
 0 <= Q_3_2 <= 322
 0 <= Q_4_2 <= 322
 0 <= Q_1_3 <= 322
 0 <= Q_2_3 <= 322
 0 <= Q_3_3 <= 322
 0 <= Q_4_3 <= 322
 0 <= Q_1_4 <= 322
 0 <= Q_2_4 <= 322
 0 <= Q_3_4 <= 322
 0 <= Q_4_4 <= 322
 0 <= Q_1_5 <= 322
 0 <= Q_2_5 <= 322
 0 <= Q_3_5 <= 322
 0 <= Q_4_5 <= 322
 0 <= Q_1_6 <= 322
 0 <= Q_2_6 <= 322
 0 <= Q_3_6 <= 322
 0 <= Q_4_6 <= 322
      I_1_0 = 10
      I_2_0 = 30
      I_3_0 = 30
      I_4_0 = 7
 0 <= Z_1_1 <= 1
 0 <= Z_1_2 <= 1
 0 <= Z_1_3 <= 1
 0 <= Z_1_4 <= 1
 0 <= Z_1_5 <= 1
 0 <= Z_1_6 <= 1
 0 <= Z_2_1 <= 1
 0 <= Z_2_2 <= 1
 0 <= Z_2_3 <= 1
 0 <= Z_2_4 <= 1
 0 <= Z_2_5 <= 1
 0 <= Z_2_6 <= 1
 0 <= Z_3_1 <= 1
 0 <= Z_3_2 <= 1
 0 <= Z_3_3 <= 1
 0 <= Z_3_4 <= 1
 0 <= Z_3_5 <= 1
 0 <= Z_3_6 <= 1
 0 <= Z_4_1 <= 1
 0 <= Z_4_2 <= 1
 0 <= Z_4_3 <= 1
 0 <= Z_4_4 <= 1
 0 <= Z_4_5 <= 1
 0 <= Z_4_6 <= 1
 0 <= Z_0_1 <= 90
 0 <= Z_0_2 <= 90
 0 <= Z_0_3 <= 90
 0 <= Z_0_4 <= 90
 0 <= Z_0_5 <= 90
 0 <= Z_0_6 <= 90
 0 <= W_1_1 <= 322
 0 <= W_2_1 <= 322
 0 <= W_1_2 <= 322
 0 <= W_2_2 <= 322
 0 <= W_1_3 <= 322
 0 <= W_2_3 <= 322
 0 <= W_1_4 <= 322
 0 <= W_2_4 <= 322
 0 <= W_1_5 <= 322
 0 <= W_2_5 <= 322
 0 <= W_1_6 <= 322
 0 <= W_2_6 <= 322
 0 <= W_3_1 <= 322
 0 <= W_3_2 <= 322
 0 <= W_3_3 <= 322
 0 <= W_3_4 <= 322
 0 <= W_3_5 <= 322
 0 <= W_3_6 <= 322
 0 <= W_4_1 <= 322
 0 <= W_4_2 <= 322
 0 <= W_4_3 <= 322
 0 <= W_4_4 <= 322
 0 <= W_4_5 <= 322
 0 <= W_4_6 <= 322
Binaries
 y_1  y_2  y_3  y_4  y_5  y_6  X_0_1_1  X_0_2_1  X_0_3_1  X_0_4_1  X_1_0_1 
 X_1_2_1  X_1_3_1  X_1_4_1  X_2_0_1  X_2_1_1  X_2_3_1  X_2_4_1  X_3_0_1 
 X_3_1_1  X_3_2_1  X_3_4_1  X_4_0_1  X_4_1_1  X_4_2_1  X_4_3_1  X_0_1_2 
 X_0_2_2  X_0_3_2  X_0_4_2  X_1_0_2  X_1_2_2  X_1_3_2  X_1_4_2  X_2_0_2 
 X_2_1_2  X_2_3_2  X_2_4_2  X_3_0_2  X_3_1_2  X_3_2_2  X_3_4_2  X_4_0_2 
 X_4_1_2  X_4_2_2  X_4_3_2  X_0_1_3  X_0_2_3  X_0_3_3  X_0_4_3  X_1_0_3 
 X_1_2_3  X_1_3_3  X_1_4_3  X_2_0_3  X_2_1_3  X_2_3_3  X_2_4_3  X_3_0_3 
 X_3_1_3  X_3_2_3  X_3_4_3  X_4_0_3  X_4_1_3  X_4_2_3  X_4_3_3  X_0_1_4 
 X_0_2_4  X_0_3_4  X_0_4_4  X_1_0_4  X_1_2_4  X_1_3_4  X_1_4_4  X_2_0_4 
 X_2_1_4  X_2_3_4  X_2_4_4  X_3_0_4  X_3_1_4  X_3_2_4  X_3_4_4  X_4_0_4 
 X_4_1_4  X_4_2_4  X_4_3_4  X_0_1_5  X_0_2_5  X_0_3_5  X_0_4_5  X_1_0_5 
 X_1_2_5  X_1_3_5  X_1_4_5  X_2_0_5  X_2_1_5  X_2_3_5  X_2_4_5  X_3_0_5 
 X_3_1_5  X_3_2_5  X_3_4_5  X_4_0_5  X_4_1_5  X_4_2_5  X_4_3_5  X_0_1_6 
 X_0_2_6  X_0_3_6  X_0_4_6  X_1_0_6  X_1_2_6  X_1_3_6  X_1_4_6  X_2_0_6 
 X_2_1_6  X_2_3_6  X_2_4_6  X_3_0_6  X_3_1_6  X_3_2_6  X_3_4_6  X_4_0_6 
 X_4_1_6  X_4_2_6  X_4_3_6  Z_1_1  Z_1_2  Z_1_3  Z_1_4  Z_1_5  Z_1_6  Z_2_1 
 Z_2_2  Z_2_3  Z_2_4  Z_2_5  Z_2_6  Z_3_1  Z_3_2  Z_3_3  Z_3_4  Z_3_5  Z_3_6 
 Z_4_1  Z_4_2  Z_4_3  Z_4_4  Z_4_5  Z_4_6 
End
